p cnf 1013
-19 -313
-20 -316
-21 -319
-22 -322
-23 -325
-24 -328
-25 -331
-26 -334
-27 -337
-28 -340
-29 -343
-30 -346
-31 -349
-32 -352
-33 -355
-34 -358
-35 -361
-36 -364
-37 365
-38 366
-39 367
-40 368
-41 -20
-41 -21
20 21 41
-42 -22
-42 -23
22 23 42
-43 -24
-43 -25
24 25 43
-44 -26
-44 -27
26 27 44
-45 -28
-45 -29
28 29 45
-46 -30
-46 -31
30 31 46
-47 -32
-47 -33
32 33 47
-48 -34
-48 -35
34 35 48
-49 -36
-49 -37
36 37 49
-50 -38
-50 -39
38 39 50
-51 41
-51 42
-41 -42 51
-52 43
-52 44
-43 -44 52
-53 45
-53 46
-45 -46 53
-54 47
-54 48
-47 -48 54
-55 49
-55 50
-49 -50 55
-56 51
-56 52
-51 -52 56
-57 53
-57 54
-53 -54 57
-58 -40
-58 55
40 -55 58
-59 56
-59 57
-56 -57 59
-60 58
-60 59
-58 -59 60
-61 -19
-61 20
19 -20 61
-62 19
-62 -20
-19 20 62
-63 -61
-63 -62
61 62 63
-64 19
-64 20
-19 -20 64
-65 -19
-65 -63
19 63 65
-66 19
-66 63
-19 -63 66
-67 -65
-67 -66
65 66 67
-68 19
-68 -63
-19 63 68
-69 -64
-69 -68
64 68 69
-70 -20
-70 21
20 -21 70
-71 20
-71 -21
-20 21 71
-72 -70
-72 -71
70 71 72
-73 20
-73 21
-20 -21 73
-74 69
-74 -72
-69 72 74
-75 -69
-75 72
69 -72 75
-76 -74
-76 -75
74 75 76
-77 -69
-77 -72
69 72 77
-78 -73
-78 -77
73 77 78
-79 -21
-79 22
21 -22 79
-80 21
-80 -22
-21 22 80
-81 -79
-81 -80
79 80 81
-82 21
-82 22
-21 -22 82
-83 78
-83 -81
-78 81 83
-84 -78
-84 81
78 -81 84
-85 -83
-85 -84
83 84 85
-86 -78
-86 -81
78 81 86
-87 -82
-87 -86
82 86 87
-88 -22
-88 23
22 -23 88
-89 22
-89 -23
-22 23 89
-90 -88
-90 -89
88 89 90
-91 22
-91 23
-22 -23 91
-92 87
-92 -90
-87 90 92
-93 -87
-93 90
87 -90 93
-94 -92
-94 -93
92 93 94
-95 -87
-95 -90
87 90 95
-96 -91
-96 -95
91 95 96
-97 -23
-97 24
23 -24 97
-98 23
-98 -24
-23 24 98
-99 -97
-99 -98
97 98 99
-100 23
-100 24
-23 -24 100
-101 96
-101 -99
-96 99 101
-102 -96
-102 99
96 -99 102
-103 -101
-103 -102
101 102 103
-104 -96
-104 -99
96 99 104
-105 -100
-105 -104
100 104 105
-106 -24
-106 25
24 -25 106
-107 24
-107 -25
-24 25 107
-108 -106
-108 -107
106 107 108
-109 24
-109 25
-24 -25 109
-110 105
-110 -108
-105 108 110
-111 -105
-111 108
105 -108 111
-112 -110
-112 -111
110 111 112
-113 -105
-113 -108
105 108 113
-114 -109
-114 -113
109 113 114
-115 -25
-115 26
25 -26 115
-116 25
-116 -26
-25 26 116
-117 -115
-117 -116
115 116 117
-118 25
-118 26
-25 -26 118
-119 114
-119 -117
-114 117 119
-120 -114
-120 117
114 -117 120
-121 -119
-121 -120
119 120 121
-122 -114
-122 -117
114 117 122
-123 -118
-123 -122
118 122 123
-124 -26
-124 27
26 -27 124
-125 26
-125 -27
-26 27 125
-126 -124
-126 -125
124 125 126
-127 26
-127 27
-26 -27 127
-128 123
-128 -126
-123 126 128
-129 -123
-129 126
123 -126 129
-130 -128
-130 -129
128 129 130
-131 -123
-131 -126
123 126 131
-132 -127
-132 -131
127 131 132
-133 -27
-133 28
27 -28 133
-134 27
-134 -28
-27 28 134
-135 -133
-135 -134
133 134 135
-136 27
-136 28
-27 -28 136
-137 132
-137 -135
-132 135 137
-138 -132
-138 135
132 -135 138
-139 -137
-139 -138
137 138 139
-140 -132
-140 -135
132 135 140
-141 -136
-141 -140
136 140 141
-142 -28
-142 29
28 -29 142
-143 28
-143 -29
-28 29 143
-144 -142
-144 -143
142 143 144
-145 28
-145 29
-28 -29 145
-146 141
-146 -144
-141 144 146
-147 -141
-147 144
141 -144 147
-148 -146
-148 -147
146 147 148
-149 -141
-149 -144
141 144 149
-150 -145
-150 -149
145 149 150
-151 -29
-151 30
29 -30 151
-152 29
-152 -30
-29 30 152
-153 -151
-153 -152
151 152 153
-154 29
-154 30
-29 -30 154
-155 150
-155 -153
-150 153 155
-156 -150
-156 153
150 -153 156
-157 -155
-157 -156
155 156 157
-158 -150
-158 -153
150 153 158
-159 -154
-159 -158
154 158 159
-160 -30
-160 31
30 -31 160
-161 30
-161 -31
-30 31 161
-162 -160
-162 -161
160 161 162
-163 30
-163 31
-30 -31 163
-164 159
-164 -162
-159 162 164
-165 -159
-165 162
159 -162 165
-166 -164
-166 -165
164 165 166
-167 -159
-167 -162
159 162 167
-168 -163
-168 -167
163 167 168
-169 -31
-169 32
31 -32 169
-170 31
-170 -32
-31 32 170
-171 -169
-171 -170
169 170 171
-172 31
-172 32
-31 -32 172
-173 168
-173 -171
-168 171 173
-174 -168
-174 171
168 -171 174
-175 -173
-175 -174
173 174 175
-176 -168
-176 -171
168 171 176
-177 -172
-177 -176
172 176 177
-178 -32
-178 33
32 -33 178
-179 32
-179 -33
-32 33 179
-180 -178
-180 -179
178 179 180
-181 32
-181 33
-32 -33 181
-182 177
-182 -180
-177 180 182
-183 -177
-183 180
177 -180 183
-184 -182
-184 -183
182 183 184
-185 -177
-185 -180
177 180 185
-186 -181
-186 -185
181 185 186
-187 -33
-187 34
33 -34 187
-188 33
-188 -34
-33 34 188
-189 -187
-189 -188
187 188 189
-190 33
-190 34
-33 -34 190
-191 186
-191 -189
-186 189 191
-192 -186
-192 189
186 -189 192
-193 -191
-193 -192
191 192 193
-194 -186
-194 -189
186 189 194
-195 -190
-195 -194
190 194 195
-196 -34
-196 35
34 -35 196
-197 34
-197 -35
-34 35 197
-198 -196
-198 -197
196 197 198
-199 34
-199 35
-34 -35 199
-200 195
-200 -198
-195 198 200
-201 -195
-201 198
195 -198 201
-202 -200
-202 -201
200 201 202
-203 -195
-203 -198
195 198 203
-204 -199
-204 -203
199 203 204
-205 -35
-205 36
35 -36 205
-206 35
-206 -36
-35 36 206
-207 -205
-207 -206
205 206 207
-208 35
-208 36
-35 -36 208
-209 204
-209 -207
-204 207 209
-210 -204
-210 207
204 -207 210
-211 -209
-211 -210
209 210 211
-212 -204
-212 -207
204 207 212
-213 -208
-213 -212
208 212 213
-214 -36
-214 37
36 -37 214
-215 36
-215 -37
-36 37 215
-216 -214
-216 -215
214 215 216
-217 36
-217 37
-36 -37 217
-218 213
-218 -216
-213 216 218
-219 -213
-219 216
213 -216 219
-220 -218
-220 -219
218 219 220
-221 -213
-221 -216
213 216 221
-222 -217
-222 -221
217 221 222
-223 -37
-223 38
37 -38 223
-224 37
-224 -38
-37 38 224
-225 -223
-225 -224
223 224 225
-226 37
-226 38
-37 -38 226
-227 222
-227 -225
-222 225 227
-228 -222
-228 225
222 -225 228
-229 -227
-229 -228
227 228 229
-230 -222
-230 -225
222 225 230
-231 -226
-231 -230
226 230 231
-232 -38
-232 39
38 -39 232
-233 38
-233 -39
-38 39 233
-234 -232
-234 -233
232 233 234
-235 38
-235 39
-38 -39 235
-236 231
-236 -234
-231 234 236
-237 -231
-237 234
231 -234 237
-238 -236
-238 -237
236 237 238
-239 -231
-239 -234
231 234 239
-240 -235
-240 -239
235 239 240
-241 -39
-241 40
39 -40 241
-242 39
-242 -40
-39 40 242
-243 -241
-243 -242
241 242 243
-244 39
-244 40
-39 -40 244
-245 240
-245 -243
-240 243 245
-246 -240
-246 243
240 -243 246
-247 -245
-247 -246
245 246 247
-248 -240
-248 -243
240 243 248
-249 -244
-249 -248
244 248 249
-250 19
-250 -67
-19 67 250
-251 -19
-251 21
19 -21 251
-252 -250
-252 -251
250 251 252
-253 19
-253 -76
-19 76 253
-254 -19
-254 22
19 -22 254
-255 -253
-255 -254
253 254 255
-256 19
-256 -85
-19 85 256
-257 -19
-257 23
19 -23 257
-258 -256
-258 -257
256 257 258
-259 19
-259 -94
-19 94 259
-260 -19
-260 24
19 -24 260
-261 -259
-261 -260
259 260 261
-262 19
-262 -103
-19 103 262
-263 -19
-263 25
19 -25 263
-264 -262
-264 -263
262 263 264
-265 19
-265 -112
-19 112 265
-266 -19
-266 26
19 -26 266
-267 -265
-267 -266
265 266 267
-268 19
-268 -121
-19 121 268
-269 -19
-269 27
19 -27 269
-270 -268
-270 -269
268 269 270
-271 19
-271 -130
-19 130 271
-272 -19
-272 28
19 -28 272
-273 -271
-273 -272
271 272 273
-274 19
-274 -139
-19 139 274
-275 -19
-275 29
19 -29 275
-276 -274
-276 -275
274 275 276
-277 19
-277 -148
-19 148 277
-278 -19
-278 30
19 -30 278
-279 -277
-279 -278
277 278 279
-280 19
-280 -157
-19 157 280
-281 -19
-281 31
19 -31 281
-282 -280
-282 -281
280 281 282
-283 19
-283 -166
-19 166 283
-284 -19
-284 32
19 -32 284
-285 -283
-285 -284
283 284 285
-286 19
-286 -175
-19 175 286
-287 -19
-287 33
19 -33 287
-288 -286
-288 -287
286 287 288
-289 19
-289 -184
-19 184 289
-290 -19
-290 34
19 -34 290
-291 -289
-291 -290
289 290 291
-292 19
-292 -193
-19 193 292
-293 -19
-293 35
19 -35 293
-294 -292
-294 -293
292 293 294
-295 19
-295 -202
-19 202 295
-296 -19
-296 36
19 -36 296
-297 -295
-297 -296
295 296 297
-298 19
-298 -211
-19 211 298
-299 -19
-299 37
19 -37 299
-300 -298
-300 -299
298 299 300
-301 19
-301 -220
-19 220 301
-302 -19
-302 38
19 -38 302
-303 -301
-303 -302
301 302 303
-304 19
-304 -229
-19 229 304
-305 -19
-305 39
19 -39 305
-306 -304
-306 -305
304 305 306
-307 19
-307 -238
-19 238 307
-308 -19
-308 40
19 -40 308
-309 -307
-309 -308
307 308 309
-310 19
-310 -247
-19 247 310
-311 1
-311 60
-1 -60 311
-312 -60
-312 61
60 -61 312
-313 -311
-313 -312
311 312 313
-314 2
-314 60
-2 -60 314
-315 -60
-315 -252
60 252 315
-316 -314
-316 -315
314 315 316
-317 3
-317 60
-3 -60 317
-318 -60
-318 -255
60 255 318
-319 -317
-319 -318
317 318 319
-320 4
-320 60
-4 -60 320
-321 -60
-321 -258
60 258 321
-322 -320
-322 -321
320 321 322
-323 5
-323 60
-5 -60 323
-324 -60
-324 -261
60 261 324
-325 -323
-325 -324
323 324 325
-326 6
-326 60
-6 -60 326
-327 -60
-327 -264
60 264 327
-328 -326
-328 -327
326 327 328
-329 7
-329 60
-7 -60 329
-330 -60
-330 -267
60 267 330
-331 -329
-331 -330
329 330 331
-332 8
-332 60
-8 -60 332
-333 -60
-333 -270
60 270 333
-334 -332
-334 -333
332 333 334
-335 9
-335 60
-9 -60 335
-336 -60
-336 -273
60 273 336
-337 -335
-337 -336
335 336 337
-338 10
-338 60
-10 -60 338
-339 -60
-339 -276
60 276 339
-340 -338
-340 -339
338 339 340
-341 11
-341 60
-11 -60 341
-342 -60
-342 -279
60 279 342
-343 -341
-343 -342
341 342 343
-344 12
-344 60
-12 -60 344
-345 -60
-345 -282
60 282 345
-346 -344
-346 -345
344 345 346
-347 13
-347 60
-13 -60 347
-348 -60
-348 -285
60 285 348
-349 -347
-349 -348
347 348 349
-350 14
-350 60
-14 -60 350
-351 -60
-351 -288
60 288 351
-352 -350
-352 -351
350 351 352
-353 15
-353 60
-15 -60 353
-354 -60
-354 -291
60 291 354
-355 -353
-355 -354
353 354 355
-356 16
-356 60
-16 -60 356
-357 -60
-357 -294
60 294 357
-358 -356
-358 -357
356 357 358
-359 17
-359 60
-17 -60 359
-360 -60
-360 -297
60 297 360
-361 -359
-361 -360
359 360 361
-362 18
-362 60
-18 -60 362
-363 -60
-363 -300
60 300 363
-364 -362
-364 -363
362 363 364
-365 -60
-365 -303
60 303 365
-366 -60
-366 -306
60 306 366
-367 -60
-367 -309
60 309 367
-368 -60
-368 310
60 -310 368
-369 -40
-369 249
40 -249 369
-370 19
-370 -369
-19 369 370
370
